new_poscar
   1.00000000000000    
     5.3740115370177600    0.0000000000000000    0.0000000000000000
     0.0000000000000000    5.3740115370177600    0.0000000000000000
     0.0000000000000000    0.0000000000000000    7.6000000000000000
   Ca   Ti   O 
    4     4    12
Direct
  -0.0065909130967752       0.0296207431403955       0.2500000000000000
  0.0065909130967752       -0.0296207431403955       0.7499999999999999
  0.5065909130967752       0.5296207431403955       0.2500000000000000
  0.4934090869032248       0.4703792568596044       0.7499999999999999
  0.5000000000000000       0.0000000000000000       0.0000000000000000
  0.5000000000000000       0.0000000000000000       0.5000000000000000
  0.0000000000000000       0.5000000000000000       0.0000000000000000
  0.0000000000000000       0.5000000000000000       0.5000000000000000
  0.7162123168964959       0.2836974926843868       0.0383382951966953
  0.2837876831035040       0.7163025073156131       -0.0383382951966953
  0.7837876831035040       0.7836974926843868       0.4616617048033046
  0.2162123168964960       0.2163025073156132       0.5383382951966954
  0.2837876831035040       0.7163025073156131       0.5383382951966954
  0.7162123168964959       0.2836974926843868       0.4616617048033046
  0.2162123168964960       0.2163025073156132       -0.0383382951966953
  0.7837876831035040       0.7836974926843868       0.0383382951966953
  0.0725565919721564       0.4832913803558688       0.2500000000000000
  -0.0725565919721564       0.5167086196441312       0.7499999999999999
  0.4274434080278435       -0.0167086196441311       0.2500000000000000
  0.5725565919721565       0.0167086196441311       0.7499999999999999
