Tristrontium distannate                 
   1.00000000000000     
     5.8085737007579166    0.0000000000000000    0.0000000000000000
     0.0000000000000000    5.8017556424823722    0.0000000000000000
     0.0000000000000000    0.0000000000000000   20.7941477319209689
   Sr   Zr   O 
    12     8    28
Direct
  0.9581733677622992  0.2543173189261978  0.0000000000000000
  0.4581733677622992  0.7456826810737951  0.0000000000000000
  0.9581733677622992  0.7543173189262049  0.5000000000000000
  0.4581733677622992  0.2456826810738022  0.5000000000000000
  0.5192875459592017  0.7393056627573742  0.1888041578134931
  0.0192875459592017  0.2606943372426116  0.8111958571865046
  0.0192875459592017  0.2606943372426116  0.1888041578134931
  0.5192875459592017  0.7393056627573742  0.8111958571865046
  0.5192875459592017  0.2393056627573884  0.6888041428134954
  0.0192875459592017  0.7606943372426258  0.3111958571865046
  0.0192875459592017  0.7606943372426258  0.6888041428134954
  0.5192875459592017  0.2393056627573884  0.3111958571865046
  0.4897428082749258  0.2486209372989379  0.0991218065176298
  0.9897428082749258  0.7513790927010575  0.9008781714823755
  0.9897428082749258  0.7513790927010575  0.0991218065176298
  0.4897428082749258  0.2486209372989379  0.9008781714823755
  0.4897428082749258  0.7486209072989425  0.5991218285176245
  0.9897428082749258  0.2513790627010621  0.4008782004823743
  0.9897428082749258  0.2513790627010621  0.5991218285176245
  0.4897428082749258  0.7486209072989425  0.4008782004823743
  0.0060155759218787  0.8225245753584645  0.0000000000000000
  0.5060155759218787  0.1774754246415355  0.0000000000000000
  0.0060155759218787  0.3225245753584716  0.5000000000000000
  0.5060155759218787  0.6774754246415355  0.5000000000000000
  0.9659008217151452  0.6847462959848301  0.1972873010591272
  0.4659008367151500  0.3152537040151699  0.8027126689408703
  0.4659008367151500  0.3152537040151699  0.1972873010591272
  0.9659008217151452  0.6847462959848301  0.8027126689408703
  0.9659008217151452  0.1847462959848301  0.6972873310591297
  0.4659008367151500  0.8152537040151699  0.3027126989408728
  0.4659008367151500  0.8152537040151699  0.6972873310591297
  0.9659008217151452  0.1847462959848301  0.3027126989408728
  0.2021508316620384  0.4642397114715706  0.0840758764968044
  0.7021508166620407  0.5357603185284319  0.9159241235031956
  0.7021508166620407  0.5357603185284319  0.0840758764968044
  0.2021508316620384  0.4642397114715706  0.9159241235031956
  0.2021508316620384  0.9642396814715681  0.5840758764968044
  0.7021508166620407  0.0357602885284294  0.4159241235031956
  0.7021508166620407  0.0357602885284294  0.5840758764968044
  0.2021508316620384  0.9642396814715681  0.4159241235031956
  0.2762235000465978  0.9622250062755313  0.1119179230887184
  0.7762235000465978  0.0377750037244695  0.8880820689112809
  0.7762235000465978  0.0377750037244695  0.1119179230887184
  0.2762235000465978  0.9622250062755313  0.8880820689112809
  0.2762235000465978  0.4622250062755313  0.6119179310887191
  0.7762235000465978  0.5377749937244687  0.3880820689112809
  0.7762235000465978  0.5377749937244687  0.6119179310887191
  0.2762235000465978  0.4622250062755313  0.3880820689112809
 
  0.00000000E+00  0.00000000E+00  0.00000000E+00
  0.00000000E+00  0.00000000E+00  0.00000000E+00
  0.00000000E+00  0.00000000E+00  0.00000000E+00
  0.00000000E+00  0.00000000E+00  0.00000000E+00
  0.00000000E+00  0.00000000E+00  0.00000000E+00
  0.00000000E+00  0.00000000E+00  0.00000000E+00
  0.00000000E+00  0.00000000E+00  0.00000000E+00
  0.00000000E+00  0.00000000E+00  0.00000000E+00
  0.00000000E+00  0.00000000E+00  0.00000000E+00
  0.00000000E+00  0.00000000E+00  0.00000000E+00
  0.00000000E+00  0.00000000E+00  0.00000000E+00
  0.00000000E+00  0.00000000E+00  0.00000000E+00
  0.00000000E+00  0.00000000E+00  0.00000000E+00
  0.00000000E+00  0.00000000E+00  0.00000000E+00
  0.00000000E+00  0.00000000E+00  0.00000000E+00
  0.00000000E+00  0.00000000E+00  0.00000000E+00
  0.00000000E+00  0.00000000E+00  0.00000000E+00
  0.00000000E+00  0.00000000E+00  0.00000000E+00
  0.00000000E+00  0.00000000E+00  0.00000000E+00
  0.00000000E+00  0.00000000E+00  0.00000000E+00
  0.00000000E+00  0.00000000E+00  0.00000000E+00
  0.00000000E+00  0.00000000E+00  0.00000000E+00
  0.00000000E+00  0.00000000E+00  0.00000000E+00
  0.00000000E+00  0.00000000E+00  0.00000000E+00
  0.00000000E+00  0.00000000E+00  0.00000000E+00
  0.00000000E+00  0.00000000E+00  0.00000000E+00
  0.00000000E+00  0.00000000E+00  0.00000000E+00
  0.00000000E+00  0.00000000E+00  0.00000000E+00
  0.00000000E+00  0.00000000E+00  0.00000000E+00
  0.00000000E+00  0.00000000E+00  0.00000000E+00
  0.00000000E+00  0.00000000E+00  0.00000000E+00
  0.00000000E+00  0.00000000E+00  0.00000000E+00
  0.00000000E+00  0.00000000E+00  0.00000000E+00
  0.00000000E+00  0.00000000E+00  0.00000000E+00
  0.00000000E+00  0.00000000E+00  0.00000000E+00
  0.00000000E+00  0.00000000E+00  0.00000000E+00
  0.00000000E+00  0.00000000E+00  0.00000000E+00
  0.00000000E+00  0.00000000E+00  0.00000000E+00
  0.00000000E+00  0.00000000E+00  0.00000000E+00
  0.00000000E+00  0.00000000E+00  0.00000000E+00
  0.00000000E+00  0.00000000E+00  0.00000000E+00
  0.00000000E+00  0.00000000E+00  0.00000000E+00
  0.00000000E+00  0.00000000E+00  0.00000000E+00
  0.00000000E+00  0.00000000E+00  0.00000000E+00
  0.00000000E+00  0.00000000E+00  0.00000000E+00
  0.00000000E+00  0.00000000E+00  0.00000000E+00
  0.00000000E+00  0.00000000E+00  0.00000000E+00
  0.00000000E+00  0.00000000E+00  0.00000000E+00
